networks/zoo_13_17/zoo_13_17-lower.txt
Number of groups: 5
Flow 1: {2 1 0} {1 8 0} 
Flow 2: {2 3 0} {3 10 0} 
Flow 3: {1 4 0} {4 11 0} 
Flow 4: {3 5 0} {5 6 0} {6 13 0} 
Flow 5: {3 2 0} Flow 6: {2 9 0} 
Flow 8: {5 3 0} Flow 12: {6 5 0} Flow 13: {7 4 0} {4 1 0} Flow 14: {1 2 0} Flow 15: {7 6 0} Time taken running everything: 0 seconds
