networks/zoo_13_17/zoo_13_17-lower.sol
<?xml version = "1.0" encoding="UTF-8" standalone="yes"?>
<CPLEXSolution version="1.2">
 <header
   problemName="networks/zoo_13_17/zoo_13_17-lower.lp"
   solutionName="incumbent"
   solutionIndex="-1"
   objectiveValue="5"
   solutionTypeValue="3"
   solutionTypeString="primal"
   solutionStatusValue="101"
   solutionStatusString="integer optimal solution"
   solutionMethodString="mip"
   primalFeasible="1"
   dualFeasible="1"
   MIPNodes="0"
   MIPIterations="0"
   writeLevel="3"/>
 <quality
   epInt="1.0000000000000001e-05"
   epRHS="9.9999999999999995e-07"
   maxIntInfeas="0"
   maxPrimalInfeas="0"
   maxX="1"
   maxSlack="1"/>
 <variables>
  <variable name="Y(1,1)" index="0" value="1"/>
  <variable name="Y(2,3)" index="14" value="1"/>
  <variable name="Y(3,4)" index="27" value="1"/>
  <variable name="Y(4,6)" index="41" value="1"/>
  <variable name="Y(6,2)" index="61" value="1"/>
  <variable name="X(1,2,14)" index="217" value="1"/>
  <variable name="X(1,4,3)" index="223" value="1"/>
  <variable name="X(1,8,1)" index="238" value="1"/>
  <variable name="X(2,1,1)" index="255" value="1"/>
  <variable name="X(2,3,2)" index="273" value="1"/>
  <variable name="X(2,9,6)" index="294" value="1"/>
  <variable name="X(3,2,5)" index="310" value="1"/>
  <variable name="X(3,5,4)" index="326" value="1"/>
  <variable name="X(3,10,2)" index="341" value="1"/>
  <variable name="X(4,1,13)" index="369" value="1"/>
  <variable name="X(4,11,3)" index="376" value="1"/>
  <variable name="X(5,3,8)" index="398" value="1"/>
  <variable name="X(5,6,4)" index="411" value="1"/>
  <variable name="X(6,5,12)" index="436" value="1"/>
  <variable name="X(6,13,4)" index="445" value="1"/>
  <variable name="X(7,4,13)" index="471" value="1"/>
  <variable name="X(7,6,15)" index="490" value="1"/>
 </variables>
</CPLEXSolution>
